12 32 9 10
6 18 9 10 3 19 17 7 8 16 5 18 1 11 5 1 6 1 8 9 6 4 5 2 11 12 3 20 19 5 4 18 
6.79 1.75 0.57 4.65 7.64 6.69 2.89 6.58 6.85 0.8 3.29 5.94 3.76 4.15 5.13 4.71 6.7 5.42 5.42 4.54 7.31 7.73 6.41 4.3 6.46 7.99 6.46 4 6.07 4.02 6.25 6.07 
7.86 3.52 1.42 6.54 2.4 5.92 6.31 7.16 0.41 0.58 3.32 6.79 0.39 7.38 6.72 7.91 3.55 0.94 6.67 2.09 1.59 3.74 0.13 6.79 1.44 5.67 4.92 6.5 3.56 1.65 0.2 6.6 
6.24 6.27 2.47 6.75 5.9 6.23 7 7.29 4.55 2.41 6.97 3.89 4.64 0.4 7.65 1.9 1.3 4.38 6.2 6.29 1.23 5.76 5.47 1.47 1.05 5.45 4.99 3.03 5.66 3.13 6.13 4.08 
0.45 5.71 3.65 3.24 5.68 6.28 0.5 6.59 0.97 0.71 0.78 1.09 0.71 0.76 2.82 1.8 0.43 7.01 5.42 7.02 7.14 3.68 1.82 2.13 5.51 5.53 7.03 6.11 0.49 3.98 3.16 7.66 
2.71 1.46 1.81 2.94 6.63 3.67 7.27 4.63 1.91 6.97 2.54 5.31 3.71 1.02 1.1 5.69 0.48 2.08 2.93 0.31 0.5 0.18 3.36 1.91 7.99 5.26 6.46 6.95 6.27 2.22 1.22 1.91 
4.06 0.61 1.05 3.61 2.12 2.25 4.52 7.23 6.94 1.54 4.7 0.67 7.98 3.78 2.83 6.48 0.36 1.46 7.89 6.45 2.44 3.07 4.95 5.54 7.24 5.02 3.68 0.07 6.88 2.2 5.09 3.32 
0.96 7.28 7.8 2.75 1.83 2.32 1.01 5.41 0.12 1.41 5.33 2.07 3.5 3.15 5.2 0.8 5.14 2.33 1.2 1.34 3.87 0.39 7.23 1.04 1.2 2.71 4.99 5.81 6.85 3.11 5.74 7.01 
5.66 0.29 2.71 2.22 3.88 0.24 7.18 5.2 5.28 1.53 2.73 4.44 3.66 0.35 5.91 3.19 2.05 0.75 0.35 0.19 7.72 1.74 3.28 3.72 7.49 2.88 6.99 4.56 1.2 7.79 7.75 5.3 
0.41 5.54 1.67 5.13 4.04 5.95 5.79 0.05 3.76 6.71 3.48 7.73 0.59 4.5 3.65 6.42 1.97 6.06 0.41 1.84 3.85 5.66 7.39 7.39 3.19 1.52 3.76 4.09 3.34 0.96 1.32 1.48 
4 4 4 4 4 4 4 4 4 4 4 4 4 4 4 4 4 4 4 4 4 4 4 4 4 4 4 4 4 4 4 4 
4.42 5.36 4.92 5.33 0.67 6.84 3.37 7.17 3.39 3.47 6.61 3.2 5.7 5.12 6.8 0.38 6.03 5.07 2.44 4.65 4.89 0.22 2.75 0.25 7.05 3.36 7.34 2.02 7.07 7.75 1.48 6.89 
7.39 5.52 2.61 6.1 6.01 2.57 1.67 5.29 0.78 7.91 3.89 3.48 1.98 5.98 3.48 2.49 4.73 7.43 7.45 5.93 7.81 3.34 3.59 6.32 7.27 1.23 0.3 6.9 5.6 3.17 2.01 4.81 
1 1 1 1 1 1 1 1 1 1 1 1 1 1 1 1 1 1 1 1 1 1 1 1 1 1 1 1 1 1 1 1 
1 1 1 1 1 1 1 1 1 1 1 1 1 1 1 1 1 1 1 1 1 1 1 1 1 1 1 1 1 1 1 1 
1 1 1 1 1 1 1 1 1 1 1 1 1 1 1 1 1 1 1 1 1 1 1 1 1 1 1 1 1 1 1 1 
1 1 1 1 1 1 1 1 1 1 1 1 1 1 1 1 1 1 1 1 1 1 1 1 1 1 1 1 1 1 1 1 
1 1 1 1 1 1 1 1 1 1 1 1 1 1 1 1 1 1 1 1 1 1 1 1 1 1 1 1 1 1 1 1 
1 1 1 1 1 1 1 1 1 1 1 1 1 1 1 1 1 1 1 1 1 1 1 1 1 1 1 1 1 1 1 1 
1 1 1 1 1 1 1 1 1 1 1 1 1 1 1 1 1 1 1 1 1 1 1 1 1 1 1 1 1 1 1 1 
1 1 1 1 1 1 1 1 1 1 1 1 1 1 1 1 1 1 1 1 1 1 1 1 1 1 1 1 1 1 1 1 
1 1 1 1 1 1 1 1 1 1 1 1 1 1 1 1 1 1 1 1 1 1 1 1 1 1 1 1 1 1 1 1 
1 1 1 1 1 1 1 1 1 1 1 1 1 1 1 1 1 1 1 1 1 1 1 1 1 1 1 1 1 1 1 1 
1 1 1 1 1 1 1 1 1 1 1 1 1 1 1 1 1 1 1 1 1 1 1 1 1 1 1 1 1 1 1 1 
1 1 1 1 1 1 1 1 1 1 1 1 1 1 1 1 1 1 1 1 1 1 1 1 1 1 1 1 1 1 1 1 
0.01 0.01 0.01 0.01 0.01 0.01 0.01 0.01 0.01 0.01 0.01 0.01 0.01 0.01 0.01 0.01 0.01 0.01 0.01 0.01 0.01 0.01 0.01 0.01 0.01 0.01 0.01 0.01 0.01 0.01 0.01 0.01 
0.02 0.02 0.02 0.02 0.02 0.02 0.02 0.02 0.02 0.02 0.02 0.02 0.02 0.02 0.02 0.02 0.02 0.02 0.02 0.02 0.02 0.02 0.02 0.02 0.02 0.02 0.02 0.02 0.02 0.02 0.02 0.02 
0.03 0.03 0.03 0.03 0.03 0.03 0.03 0.03 0.03 0.03 0.03 0.03 0.03 0.03 0.03 0.03 0.03 0.03 0.03 0.03 0.03 0.03 0.03 0.03 0.03 0.03 0.03 0.03 0.03 0.03 0.03 0.03 
0.04 0.04 0.04 0.04 0.04 0.04 0.04 0.04 0.04 0.04 0.04 0.04 0.04 0.04 0.04 0.04 0.04 0.04 0.04 0.04 0.04 0.04 0.04 0.04 0.04 0.04 0.04 0.04 0.04 0.04 0.04 0.04 
0.05 0.05 0.05 0.05 0.05 0.05 0.05 0.05 0.05 0.05 0.05 0.05 0.05 0.05 0.05 0.05 0.05 0.05 0.05 0.05 0.05 0.05 0.05 0.05 0.05 0.05 0.05 0.05 0.05 0.05 0.05 0.05 
0.06 0.06 0.06 0.06 0.06 0.06 0.06 0.06 0.06 0.06 0.06 0.06 0.06 0.06 0.06 0.06 0.06 0.06 0.06 0.06 0.06 0.06 0.06 0.06 0.06 0.06 0.06 0.06 0.06 0.06 0.06 0.06 
0.07 0.07 0.07 0.07 0.07 0.07 0.07 0.07 0.07 0.07 0.07 0.07 0.07 0.07 0.07 0.07 0.07 0.07 0.07 0.07 0.07 0.07 0.07 0.07 0.07 0.07 0.07 0.07 0.07 0.07 0.07 0.07 
0.08 0.08 0.08 0.08 0.08 0.08 0.08 0.08 0.08 0.08 0.08 0.08 0.08 0.08 0.08 0.08 0.08 0.08 0.08 0.08 0.08 0.08 0.08 0.08 0.08 0.08 0.08 0.08 0.08 0.08 0.08 0.08 
0.09 0.09 0.09 0.09 0.09 0.09 0.09 0.09 0.09 0.09 0.09 0.09 0.09 0.09 0.09 0.09 0.09 0.09 0.09 0.09 0.09 0.09 0.09 0.09 0.09 0.09 0.09 0.09 0.09 0.09 0.09 0.09 
0.1 0.1 0.1 0.1 0.1 0.1 0.1 0.1 0.1 0.1 0.1 0.1 0.1 0.1 0.1 0.1 0.1 0.1 0.1 0.1 0.1 0.1 0.1 0.1 0.1 0.1 0.1 0.1 0.1 0.1 0.1 0.1 
0.5 0.5 0.5 0.5 0.5 0.5 0.5 0.5 0.5 0.5 0.5 0.5 0.5 0.5 0.5 0.5 0.5 0.5 0.5 0.5 0.5 0.5 0.5 0.5 0.5 0.5 0.5 0.5 0.5 0.5 0.5 0.5 
1 1 1 1 1 1 1 1 1 1 1 1 1 1 1 1 1 1 1 1 1 1 1 1 1 1 1 1 1 1 1 1 
